
nmachesperday = 7;
nmatchesperstadium = 7;
ndays = 13;
nteams = 14;
nstadiums = 13;

fixes=[|{1,2},{},{},{},{},{},{},{},{},{},{},{},{4}|
        {},{1,3},{},{},{},{},{},{},{},{},{},{4},{}|
        {},{},{1,4},{},{},{},{},{},{},{},{5},{},{}|
        {},{},{},{1,5},{},{},{},{},{},{4},{},{},{}|
        {},{},{},{},{1},{},{},{},{4},{},{},{},{}|
        {},{},{},{},{},{1},{},{4},{},{},{},{},{}|
        {},{},{},{},{},{},{1},{},{},{},{},{},{}|
        {},{},{},{},{},{3},{},{1},{},{},{},{},{}|
        {},{},{},{},{3},{},{},{},{1},{},{},{},{}|
        {},{},{},{3},{},{},{},{},{},{1},{},{},{}|
        {},{},{3},{},{},{},{},{},{},{},{1},{},{}|
        {},{},{},{},{},{},{},{},{},{},{},{1},{}|
        {3},{},{},{},{},{},{},{},{},{},{},{},{1}|];
       
       

distancies = [|0, 10, 20, 30, 40, 50, 60 ,70, 80, 90, 95, 25, 50|  % A
              10,  0, 15, 25, 35, 45, 55, 65, 75, 80, 85, 33, 53|  % B
              20, 15,  0, 12, 22, 32, 42, 45, 50, 70, 75, 44, 54|  % C
              30, 25, 12,  0, 18, 28, 38, 42, 45, 60, 65, 55, 55|  % D
              40, 35, 22, 18,  0, 16, 26, 30, 40, 50, 55, 60, 56|  % E
              50, 45, 32, 28, 16,  0, 14, 20, 30, 40, 45, 65, 57|  % F
              60, 55, 42, 38, 26, 14,  0, 15, 20, 30, 35, 70, 58|
              70, 65, 45, 42, 30, 20, 15,  0, 10, 20, 25, 75, 59|
              80, 75, 50, 45, 40, 30, 20, 10,  0, 10, 15, 80, 60|
              90, 80, 70, 60, 50, 40, 30, 20, 10,  0,  5, 85, 61|
              95, 85, 75, 65, 55, 45, 35, 25, 15,  5,  0, 90, 62|
              25, 33, 44, 55, 60, 65, 70, 75, 80, 85, 90,  0, 63|
              50, 53, 54, 55, 56, 57, 58, 59, 60, 61, 62, 63,  0|];
    
    
tifosi = [10000,20000,2000,15000,7000,30000,3000,25000,9000,27000,5000,4000,35000,1000];
capacitats = [40000,35000,20000,25000,10000,18000,23000,36000,7000,41000,31000, 50000, 6500];
